Problem:    ParteA
Rows:       81
Columns:    372 (372 integer, 372 binary)
Non-zeros:  1752
Status:     INTEGER OPTIMAL
Objective:  z = 58 (MAXimum)

   No.   Row name        Activity     Lower bound   Upper bound
------ ------------    ------------- ------------- -------------
     1 z                          58                             
     2 eleccionCartaE1T1
                                   1             1             = 
     3 eleccionCartaE1T2
                                   2             2             = 
     4 eleccionCartaE1T3
                                   3             3             = 
     5 eleccionCartaE1T4
                                   4             4             = 
     6 eleccionCartaE1T5
                                   5             5             = 
     7 eleccionCartaE1T6
                                   6             6             = 
     8 soloUnaCarta1E1
                                   1                           1 
     9 soloUnaCarta2E1
                                   0                           1 
    10 soloUnaCarta3E1
                                   0                           1 
    11 soloUnaCarta4E1
                                   0                           1 
    12 soloUnaCarta5E1
                                   1                           1 
    13 soloUnaCarta6E1
                                   0                           1 
    14 soloUnaCarta7E1
                                   0                           1 
    15 soloUnaCarta8E1
                                   0                           1 
    16 soloUnaCarta9E1
                                   0                           1 
    17 soloUnaCarta10E1
                                   0                           1 
    18 soloUnaCarta11E1
                                   0                           1 
    19 soloUnaCarta12E1
                                   1                           1 
    20 soloUnaCarta13E1
                                   1                           1 
    21 soloUnaCarta14E1
                                   1                           1 
    22 soloUnaCarta15E1
                                   1                           1 
    23 soloUnaCarta16E1
                                   0                           1 
    24 soloUnaCarta17E1
                                   0                           1 
    25 soloUnaCarta18E1
                                   0                           1 
    26 soloUnaCarta19E1
                                   0                           1 
    27 soloUnaCarta20E1
                                   0                           1 
    28 soloUnaCarta21E1
                                   0                           1 
    29 soloUnaCarta22E1
                                   0                           1 
    30 soloUnaCarta23E1
                                   0                           1 
    31 soloUnaCarta24E1
                                   0                           1 
    32 eleccionCartaE2T1
                                   1             1             = 
    33 eleccionCartaE2T2
                                   2             2             = 
    34 eleccionCartaE2T3
                                   3             3             = 
    35 eleccionCartaE2T4
                                   4             4             = 
    36 eleccionCartaE2T5
                                   5             5             = 
    37 eleccionCartaE2T6
                                   6             6             = 
    38 soloUnaCarta1E2
                                   1                           1 
    39 soloUnaCarta2E2
                                   0                           1 
    40 soloUnaCarta3E2
                                   0                           1 
    41 soloUnaCarta4E2
                                   0                           1 
    42 soloUnaCarta5E2
                                   1                           1 
    43 soloUnaCarta6E2
                                   0                           1 
    44 soloUnaCarta7E2
                                   0                           1 
    45 soloUnaCarta8E2
                                   1                           1 
    46 soloUnaCarta9E2
                                   1                           1 
    47 soloUnaCarta10E2
                                   1                           1 
    48 soloUnaCarta11E2
                                   1                           1 
    49 soloUnaCarta12E2
                                   0                           1 
    50 soloUnaCarta13E2
                                   0                           1 
    51 soloUnaCarta14E2
                                   0                           1 
    52 soloUnaCarta15E2
                                   0                           1 
    53 soloUnaCarta16E2
                                   0                           1 
    54 soloUnaCarta17E2
                                   0                           1 
    55 soloUnaCarta18E2
                                   0                           1 
    56 soloUnaCarta19E2
                                   0                           1 
    57 soloUnaCarta20E2
                                   0                           1 
    58 soloUnaCarta21E2
                                   0                           1 
    59 eleccionCartaE3T1
                                   1             1             = 
    60 eleccionCartaE3T2
                                   2             2             = 
    61 eleccionCartaE3T3
                                   3             3             = 
    62 eleccionCartaE3T4
                                   4             4             = 
    63 eleccionCartaE3T5
                                   5             5             = 
    64 eleccionCartaE3T6
                                   6             6             = 
    65 soloUnaCarta1E3
                                   1                           1 
    66 soloUnaCarta2E3
                                   1                           1 
    67 soloUnaCarta3E3
                                   1                           1 
    68 soloUnaCarta4E3
                                   1                           1 
    69 soloUnaCarta5E3
                                   1                           1 
    70 soloUnaCarta6E3
                                   0                           1 
    71 soloUnaCarta7E3
                                   0                           1 
    72 soloUnaCarta8E3
                                   0                           1 
    73 soloUnaCarta9E3
                                   0                           1 
    74 soloUnaCarta10E3
                                   0                           1 
    75 soloUnaCarta11E3
                                   0                           1 
    76 soloUnaCarta12E3
                                   0                           1 
    77 soloUnaCarta13E3
                                   0                           1 
    78 soloUnaCarta14E3
                                   0                           1 
    79 soloUnaCarta15E3
                                   0                           1 
    80 soloUnaCarta16E3
                                   0                           1 
    81 soloUnaCarta17E3
                                   1                           1 

   No. Column name       Activity     Lower bound   Upper bound
------ ------------    ------------- ------------- -------------
     1 Ype[1,1]     *              1             0             1 
     2 Ype[1,2]     *              0             0             1 
     3 Ype[1,3]     *              0             0             1 
     4 Ype[1,4]     *              0             0             1 
     5 Ype[1,5]     *              0             0             1 
     6 Ype[1,6]     *              0             0             1 
     7 Ype[2,1]     *              0             0             1 
     8 Ype[2,2]     *              0             0             1 
     9 Ype[2,3]     *              0             0             1 
    10 Ype[2,4]     *              0             0             1 
    11 Ype[2,5]     *              0             0             1 
    12 Ype[2,6]     *              0             0             1 
    13 Ype[3,1]     *              0             0             1 
    14 Ype[3,2]     *              0             0             1 
    15 Ype[3,3]     *              0             0             1 
    16 Ype[3,4]     *              0             0             1 
    17 Ype[3,5]     *              0             0             1 
    18 Ype[3,6]     *              0             0             1 
    19 Ype[4,1]     *              0             0             1 
    20 Ype[4,2]     *              0             0             1 
    21 Ype[4,3]     *              0             0             1 
    22 Ype[4,4]     *              0             0             1 
    23 Ype[4,5]     *              0             0             1 
    24 Ype[4,6]     *              0             0             1 
    25 Ype[5,1]     *              0             0             1 
    26 Ype[5,2]     *              0             0             1 
    27 Ype[5,3]     *              0             0             1 
    28 Ype[5,4]     *              0             0             1 
    29 Ype[5,5]     *              1             0             1 
    30 Ype[5,6]     *              0             0             1 
    31 Ype[6,1]     *              0             0             1 
    32 Ype[6,2]     *              0             0             1 
    33 Ype[6,3]     *              0             0             1 
    34 Ype[6,4]     *              0             0             1 
    35 Ype[6,5]     *              0             0             1 
    36 Ype[6,6]     *              0             0             1 
    37 Ype[7,1]     *              0             0             1 
    38 Ype[7,2]     *              0             0             1 
    39 Ype[7,3]     *              0             0             1 
    40 Ype[7,4]     *              0             0             1 
    41 Ype[7,5]     *              0             0             1 
    42 Ype[7,6]     *              0             0             1 
    43 Ype[8,1]     *              0             0             1 
    44 Ype[8,2]     *              0             0             1 
    45 Ype[8,3]     *              0             0             1 
    46 Ype[8,4]     *              0             0             1 
    47 Ype[8,5]     *              0             0             1 
    48 Ype[8,6]     *              0             0             1 
    49 Ype[9,1]     *              0             0             1 
    50 Ype[9,2]     *              0             0             1 
    51 Ype[9,3]     *              0             0             1 
    52 Ype[9,4]     *              0             0             1 
    53 Ype[9,5]     *              0             0             1 
    54 Ype[9,6]     *              0             0             1 
    55 Ype[10,1]    *              0             0             1 
    56 Ype[10,2]    *              0             0             1 
    57 Ype[10,3]    *              0             0             1 
    58 Ype[10,4]    *              0             0             1 
    59 Ype[10,5]    *              0             0             1 
    60 Ype[10,6]    *              0             0             1 
    61 Ype[11,1]    *              0             0             1 
    62 Ype[11,2]    *              0             0             1 
    63 Ype[11,3]    *              0             0             1 
    64 Ype[11,4]    *              0             0             1 
    65 Ype[11,5]    *              0             0             1 
    66 Ype[11,6]    *              0             0             1 
    67 Ype[12,1]    *              0             0             1 
    68 Ype[12,2]    *              1             0             1 
    69 Ype[12,3]    *              0             0             1 
    70 Ype[12,4]    *              0             0             1 
    71 Ype[12,5]    *              0             0             1 
    72 Ype[12,6]    *              0             0             1 
    73 Ype[13,1]    *              0             0             1 
    74 Ype[13,2]    *              0             0             1 
    75 Ype[13,3]    *              0             0             1 
    76 Ype[13,4]    *              0             0             1 
    77 Ype[13,5]    *              0             0             1 
    78 Ype[13,6]    *              1             0             1 
    79 Ype[14,1]    *              0             0             1 
    80 Ype[14,2]    *              0             0             1 
    81 Ype[14,3]    *              1             0             1 
    82 Ype[14,4]    *              0             0             1 
    83 Ype[14,5]    *              0             0             1 
    84 Ype[14,6]    *              0             0             1 
    85 Ype[15,1]    *              0             0             1 
    86 Ype[15,2]    *              0             0             1 
    87 Ype[15,3]    *              0             0             1 
    88 Ype[15,4]    *              1             0             1 
    89 Ype[15,5]    *              0             0             1 
    90 Ype[15,6]    *              0             0             1 
    91 Ype[16,1]    *              0             0             1 
    92 Ype[16,2]    *              0             0             1 
    93 Ype[16,3]    *              0             0             1 
    94 Ype[16,4]    *              0             0             1 
    95 Ype[16,5]    *              0             0             1 
    96 Ype[16,6]    *              0             0             1 
    97 Ype[17,1]    *              0             0             1 
    98 Ype[17,2]    *              0             0             1 
    99 Ype[17,3]    *              0             0             1 
   100 Ype[17,4]    *              0             0             1 
   101 Ype[17,5]    *              0             0             1 
   102 Ype[17,6]    *              0             0             1 
   103 Ype[18,1]    *              0             0             1 
   104 Ype[18,2]    *              0             0             1 
   105 Ype[18,3]    *              0             0             1 
   106 Ype[18,4]    *              0             0             1 
   107 Ype[18,5]    *              0             0             1 
   108 Ype[18,6]    *              0             0             1 
   109 Ype[19,1]    *              0             0             1 
   110 Ype[19,2]    *              0             0             1 
   111 Ype[19,3]    *              0             0             1 
   112 Ype[19,4]    *              0             0             1 
   113 Ype[19,5]    *              0             0             1 
   114 Ype[19,6]    *              0             0             1 
   115 Ype[20,1]    *              0             0             1 
   116 Ype[20,2]    *              0             0             1 
   117 Ype[20,3]    *              0             0             1 
   118 Ype[20,4]    *              0             0             1 
   119 Ype[20,5]    *              0             0             1 
   120 Ype[20,6]    *              0             0             1 
   121 Ype[21,1]    *              0             0             1 
   122 Ype[21,2]    *              0             0             1 
   123 Ype[21,3]    *              0             0             1 
   124 Ype[21,4]    *              0             0             1 
   125 Ype[21,5]    *              0             0             1 
   126 Ype[21,6]    *              0             0             1 
   127 Ype[22,1]    *              0             0             1 
   128 Ype[22,2]    *              0             0             1 
   129 Ype[22,3]    *              0             0             1 
   130 Ype[22,4]    *              0             0             1 
   131 Ype[22,5]    *              0             0             1 
   132 Ype[22,6]    *              0             0             1 
   133 Ype[23,1]    *              0             0             1 
   134 Ype[23,2]    *              0             0             1 
   135 Ype[23,3]    *              0             0             1 
   136 Ype[23,4]    *              0             0             1 
   137 Ype[23,5]    *              0             0             1 
   138 Ype[23,6]    *              0             0             1 
   139 Ype[24,1]    *              0             0             1 
   140 Ype[24,2]    *              0             0             1 
   141 Ype[24,3]    *              0             0             1 
   142 Ype[24,4]    *              0             0             1 
   143 Ype[24,5]    *              0             0             1 
   144 Ype[24,6]    *              0             0             1 
   145 Yse[1,1]     *              1             0             1 
   146 Yse[1,2]     *              0             0             1 
   147 Yse[1,3]     *              0             0             1 
   148 Yse[1,4]     *              0             0             1 
   149 Yse[1,5]     *              0             0             1 
   150 Yse[1,6]     *              0             0             1 
   151 Yse[2,1]     *              0             0             1 
   152 Yse[2,2]     *              0             0             1 
   153 Yse[2,3]     *              0             0             1 
   154 Yse[2,4]     *              0             0             1 
   155 Yse[2,5]     *              0             0             1 
   156 Yse[2,6]     *              0             0             1 
   157 Yse[3,1]     *              0             0             1 
   158 Yse[3,2]     *              0             0             1 
   159 Yse[3,3]     *              0             0             1 
   160 Yse[3,4]     *              0             0             1 
   161 Yse[3,5]     *              0             0             1 
   162 Yse[3,6]     *              0             0             1 
   163 Yse[4,1]     *              0             0             1 
   164 Yse[4,2]     *              0             0             1 
   165 Yse[4,3]     *              0             0             1 
   166 Yse[4,4]     *              0             0             1 
   167 Yse[4,5]     *              0             0             1 
   168 Yse[4,6]     *              0             0             1 
   169 Yse[5,1]     *              0             0             1 
   170 Yse[5,2]     *              0             0             1 
   171 Yse[5,3]     *              0             0             1 
   172 Yse[5,4]     *              0             0             1 
   173 Yse[5,5]     *              1             0             1 
   174 Yse[5,6]     *              0             0             1 
   175 Yse[6,1]     *              0             0             1 
   176 Yse[6,2]     *              0             0             1 
   177 Yse[6,3]     *              0             0             1 
   178 Yse[6,4]     *              0             0             1 
   179 Yse[6,5]     *              0             0             1 
   180 Yse[6,6]     *              0             0             1 
   181 Yse[7,1]     *              0             0             1 
   182 Yse[7,2]     *              0             0             1 
   183 Yse[7,3]     *              0             0             1 
   184 Yse[7,4]     *              0             0             1 
   185 Yse[7,5]     *              0             0             1 
   186 Yse[7,6]     *              0             0             1 
   187 Yse[8,1]     *              0             0             1 
   188 Yse[8,2]     *              0             0             1 
   189 Yse[8,3]     *              0             0             1 
   190 Yse[8,4]     *              0             0             1 
   191 Yse[8,5]     *              0             0             1 
   192 Yse[8,6]     *              1             0             1 
   193 Yse[9,1]     *              0             0             1 
   194 Yse[9,2]     *              0             0             1 
   195 Yse[9,3]     *              0             0             1 
   196 Yse[9,4]     *              1             0             1 
   197 Yse[9,5]     *              0             0             1 
   198 Yse[9,6]     *              0             0             1 
   199 Yse[10,1]    *              0             0             1 
   200 Yse[10,2]    *              0             0             1 
   201 Yse[10,3]    *              1             0             1 
   202 Yse[10,4]    *              0             0             1 
   203 Yse[10,5]    *              0             0             1 
   204 Yse[10,6]    *              0             0             1 
   205 Yse[11,1]    *              0             0             1 
   206 Yse[11,2]    *              1             0             1 
   207 Yse[11,3]    *              0             0             1 
   208 Yse[11,4]    *              0             0             1 
   209 Yse[11,5]    *              0             0             1 
   210 Yse[11,6]    *              0             0             1 
   211 Yse[12,1]    *              0             0             1 
   212 Yse[12,2]    *              0             0             1 
   213 Yse[12,3]    *              0             0             1 
   214 Yse[12,4]    *              0             0             1 
   215 Yse[12,5]    *              0             0             1 
   216 Yse[12,6]    *              0             0             1 
   217 Yse[13,1]    *              0             0             1 
   218 Yse[13,2]    *              0             0             1 
   219 Yse[13,3]    *              0             0             1 
   220 Yse[13,4]    *              0             0             1 
   221 Yse[13,5]    *              0             0             1 
   222 Yse[13,6]    *              0             0             1 
   223 Yse[14,1]    *              0             0             1 
   224 Yse[14,2]    *              0             0             1 
   225 Yse[14,3]    *              0             0             1 
   226 Yse[14,4]    *              0             0             1 
   227 Yse[14,5]    *              0             0             1 
   228 Yse[14,6]    *              0             0             1 
   229 Yse[15,1]    *              0             0             1 
   230 Yse[15,2]    *              0             0             1 
   231 Yse[15,3]    *              0             0             1 
   232 Yse[15,4]    *              0             0             1 
   233 Yse[15,5]    *              0             0             1 
   234 Yse[15,6]    *              0             0             1 
   235 Yse[16,1]    *              0             0             1 
   236 Yse[16,2]    *              0             0             1 
   237 Yse[16,3]    *              0             0             1 
   238 Yse[16,4]    *              0             0             1 
   239 Yse[16,5]    *              0             0             1 
   240 Yse[16,6]    *              0             0             1 
   241 Yse[17,1]    *              0             0             1 
   242 Yse[17,2]    *              0             0             1 
   243 Yse[17,3]    *              0             0             1 
   244 Yse[17,4]    *              0             0             1 
   245 Yse[17,5]    *              0             0             1 
   246 Yse[17,6]    *              0             0             1 
   247 Yse[18,1]    *              0             0             1 
   248 Yse[18,2]    *              0             0             1 
   249 Yse[18,3]    *              0             0             1 
   250 Yse[18,4]    *              0             0             1 
   251 Yse[18,5]    *              0             0             1 
   252 Yse[18,6]    *              0             0             1 
   253 Yse[19,1]    *              0             0             1 
   254 Yse[19,2]    *              0             0             1 
   255 Yse[19,3]    *              0             0             1 
   256 Yse[19,4]    *              0             0             1 
   257 Yse[19,5]    *              0             0             1 
   258 Yse[19,6]    *              0             0             1 
   259 Yse[20,1]    *              0             0             1 
   260 Yse[20,2]    *              0             0             1 
   261 Yse[20,3]    *              0             0             1 
   262 Yse[20,4]    *              0             0             1 
   263 Yse[20,5]    *              0             0             1 
   264 Yse[20,6]    *              0             0             1 
   265 Yse[21,1]    *              0             0             1 
   266 Yse[21,2]    *              0             0             1 
   267 Yse[21,3]    *              0             0             1 
   268 Yse[21,4]    *              0             0             1 
   269 Yse[21,5]    *              0             0             1 
   270 Yse[21,6]    *              0             0             1 
   271 Yte[1,1]     *              1             0             1 
   272 Yte[1,2]     *              0             0             1 
   273 Yte[1,3]     *              0             0             1 
   274 Yte[1,4]     *              0             0             1 
   275 Yte[1,5]     *              0             0             1 
   276 Yte[1,6]     *              0             0             1 
   277 Yte[2,1]     *              0             0             1 
   278 Yte[2,2]     *              1             0             1 
   279 Yte[2,3]     *              0             0             1 
   280 Yte[2,4]     *              0             0             1 
   281 Yte[2,5]     *              0             0             1 
   282 Yte[2,6]     *              0             0             1 
   283 Yte[3,1]     *              0             0             1 
   284 Yte[3,2]     *              0             0             1 
   285 Yte[3,3]     *              1             0             1 
   286 Yte[3,4]     *              0             0             1 
   287 Yte[3,5]     *              0             0             1 
   288 Yte[3,6]     *              0             0             1 
   289 Yte[4,1]     *              0             0             1 
   290 Yte[4,2]     *              0             0             1 
   291 Yte[4,3]     *              0             0             1 
   292 Yte[4,4]     *              1             0             1 
   293 Yte[4,5]     *              0             0             1 
   294 Yte[4,6]     *              0             0             1 
   295 Yte[5,1]     *              0             0             1 
   296 Yte[5,2]     *              0             0             1 
   297 Yte[5,3]     *              0             0             1 
   298 Yte[5,4]     *              0             0             1 
   299 Yte[5,5]     *              1             0             1 
   300 Yte[5,6]     *              0             0             1 
   301 Yte[6,1]     *              0             0             1 
   302 Yte[6,2]     *              0             0             1 
   303 Yte[6,3]     *              0             0             1 
   304 Yte[6,4]     *              0             0             1 
   305 Yte[6,5]     *              0             0             1 
   306 Yte[6,6]     *              0             0             1 
   307 Yte[7,1]     *              0             0             1 
   308 Yte[7,2]     *              0             0             1 
   309 Yte[7,3]     *              0             0             1 
   310 Yte[7,4]     *              0             0             1 
   311 Yte[7,5]     *              0             0             1 
   312 Yte[7,6]     *              0             0             1 
   313 Yte[8,1]     *              0             0             1 
   314 Yte[8,2]     *              0             0             1 
   315 Yte[8,3]     *              0             0             1 
   316 Yte[8,4]     *              0             0             1 
   317 Yte[8,5]     *              0             0             1 
   318 Yte[8,6]     *              0             0             1 
   319 Yte[9,1]     *              0             0             1 
   320 Yte[9,2]     *              0             0             1 
   321 Yte[9,3]     *              0             0             1 
   322 Yte[9,4]     *              0             0             1 
   323 Yte[9,5]     *              0             0             1 
   324 Yte[9,6]     *              0             0             1 
   325 Yte[10,1]    *              0             0             1 
   326 Yte[10,2]    *              0             0             1 
   327 Yte[10,3]    *              0             0             1 
   328 Yte[10,4]    *              0             0             1 
   329 Yte[10,5]    *              0             0             1 
   330 Yte[10,6]    *              0             0             1 
   331 Yte[11,1]    *              0             0             1 
   332 Yte[11,2]    *              0             0             1 
   333 Yte[11,3]    *              0             0             1 
   334 Yte[11,4]    *              0             0             1 
   335 Yte[11,5]    *              0             0             1 
   336 Yte[11,6]    *              0             0             1 
   337 Yte[12,1]    *              0             0             1 
   338 Yte[12,2]    *              0             0             1 
   339 Yte[12,3]    *              0             0             1 
   340 Yte[12,4]    *              0             0             1 
   341 Yte[12,5]    *              0             0             1 
   342 Yte[12,6]    *              0             0             1 
   343 Yte[13,1]    *              0             0             1 
   344 Yte[13,2]    *              0             0             1 
   345 Yte[13,3]    *              0             0             1 
   346 Yte[13,4]    *              0             0             1 
   347 Yte[13,5]    *              0             0             1 
   348 Yte[13,6]    *              0             0             1 
   349 Yte[14,1]    *              0             0             1 
   350 Yte[14,2]    *              0             0             1 
   351 Yte[14,3]    *              0             0             1 
   352 Yte[14,4]    *              0             0             1 
   353 Yte[14,5]    *              0             0             1 
   354 Yte[14,6]    *              0             0             1 
   355 Yte[15,1]    *              0             0             1 
   356 Yte[15,2]    *              0             0             1 
   357 Yte[15,3]    *              0             0             1 
   358 Yte[15,4]    *              0             0             1 
   359 Yte[15,5]    *              0             0             1 
   360 Yte[15,6]    *              0             0             1 
   361 Yte[16,1]    *              0             0             1 
   362 Yte[16,2]    *              0             0             1 
   363 Yte[16,3]    *              0             0             1 
   364 Yte[16,4]    *              0             0             1 
   365 Yte[16,5]    *              0             0             1 
   366 Yte[16,6]    *              0             0             1 
   367 Yte[17,1]    *              0             0             1 
   368 Yte[17,2]    *              0             0             1 
   369 Yte[17,3]    *              0             0             1 
   370 Yte[17,4]    *              0             0             1 
   371 Yte[17,5]    *              0             0             1 
   372 Yte[17,6]    *              1             0             1 

Integer feasibility conditions:

KKT.PE: max.abs.err = 0.00e+00 on row 0
        max.rel.err = 0.00e+00 on row 0
        High quality

KKT.PB: max.abs.err = 0.00e+00 on row 0
        max.rel.err = 0.00e+00 on row 0
        High quality

End of output
